p tw 20 116
0 1
0 2
0 3
0 13
0 9
0 17
0 18
0 4
0 15
0 10
0 12
0 11
0 6
0 8
1 2
1 4
1 8
1 17
1 7
1 12
1 16
1 3
1 14
1 10
1 13
1 15
1 11
2 3
2 4
2 7
2 13
2 15
2 5
2 19
2 14
2 17
3 4
3 5
3 6
3 13
3 8
3 10
3 7
3 16
3 19
3 11
3 17
3 12
3 14
3 9
4 7
4 15
4 12
4 18
4 9
4 19
4 16
4 10
5 6
5 15
5 16
5 9
5 13
5 10
5 14
6 7
6 14
6 9
6 12
6 15
7 8
7 9
7 14
7 13
7 16
7 18
7 11
7 12
7 19
8 9
8 10
8 17
8 15
8 12
8 13
8 11
9 17
9 18
9 13
9 19
9 12
9 14
10 11
10 12
10 14
10 17
10 16
11 12
11 16
11 17
11 19
11 18
11 13
12 18
12 19
12 14
12 16
12 15
13 17
13 15
13 19
14 18
14 17
14 16
15 16
17 18
